\ Date: 1921.10
\ Cycle: 02
\ Solver: XA

\ objective function 
Maximize
+ 2.0 x
+ 2.0 y
+ 2.0 z

\ constraint
Subject To
goalz:  + z = 2.0
gx:  + x = 3.0
gy:  + y = 3.0

\ dvar
Bounds

End




\ objective value:   16.0
